mapa = [|
         9,9,9,9,9,9,9,9,9|
         9,9,8,8,1,8,8,9,9|
         9,9,1,8,8,8,1,9,9|
         9,8,8,8,8,8,8,8,9|
         9,8,8,8,8,8,8,8,9|
         9,9,9,9,9,9,9,9,9|];
dimx = 6;
dimy = 9;
filav = 4;
colav = 5;
